20
80 43 73 77 98 87 44 92 45 55 56 41 33 83 84 52 91 12 44 
87 71 91 7 26 67 52 55 94 42 49 60 22 91 32 98 89 19 
41 81 63 96 36 3 29 18 86 81 9 98 24 96 69 15 3 
94 82 54 49 75 96 97 35 17 88 66 15 76 85 56 56 
47 51 92 50 79 9 36 59 18 33 83 14 1 98 16 
95 79 70 43 53 65 40 88 82 27 54 96 2 38 
51 58 84 2 49 33 81 58 68 40 75 1 23 
89 2 20 4 96 98 74 39 51 38 78 38 
19 5 91 15 7 29 66 64 12 68 13 
45 48 70 13 88 45 13 10 33 14 
30 37 10 27 11 49 78 48 27 
16 67 31 7 82 38 35 47 
1 46 15 14 91 62 84 
3 50 28 16 59 61 
29 89 98 39 15 
9 88 93 57 
14 8 23 
45 15 
5 

